Ordonnancement/plne/source/petit_instance/5job/5job_9.dat
data;
param nombreJob := 5;
param nombreRessource := 3;
param duree := 1 1 2 9 3 1 4 4 5 7;
param capaciteRessource := 1 6 2 16 3 18;
param besoinRessource : 1 2 3 :=
                    1   4 8 7
                    2   2 8 10
                    3   1 2 5
                    4   3 7 2
                    5   4 5 7;
end;

