Ordonnancement/plne/source/glpk_resultat/5job/5job_9.sol
Problem:    glpsolRcpsp
Rows:       282
Columns:    111 (110 integer, 110 binary)
Non-zeros:  1911
Status:     INTEGER OPTIMAL
Objective:  obj = 12 (MINimum)

   No.   Row name        Activity     Lower bound   Upper bound
------ ------------    ------------- ------------- -------------
     1 periode[1]                  1             1             = 
     2 periode[2]                  9             9             = 
     3 periode[3]                  1             1             = 
     4 periode[4]                  4             4             = 
     5 periode[5]                  7             7             = 
     6 complet[1,1]                1                           1 
     7 complet[1,2]                1                           1 
     8 complet[1,3]                1                           1 
     9 complet[1,4]                1                           1 
    10 complet[1,5]                1                           1 
    11 complet[1,6]                1                           1 
    12 complet[1,7]                1                           1 
    13 complet[1,8]                1                           1 
    14 complet[1,9]                1                           1 
    15 complet[1,10]
                                   1                           1 
    16 complet[1,11]
                                  -1                           1 
    17 complet[1,12]
                                   1                           1 
    18 complet[1,13]
                                   0                           1 
    19 complet[1,14]
                                   0                           1 
    20 complet[1,15]
                                   0                           1 
    21 complet[1,16]
                                   0                           1 
    22 complet[1,17]
                                   0                           1 
    23 complet[1,18]
                                   0                           1 
    24 complet[1,19]
                                   0                           1 
    25 complet[1,20]
                                   0                           1 
    26 complet[2,1]                9                           9 
    27 complet[2,2]               -1                           9 
    28 complet[2,3]                7                           9 
    29 complet[2,4]                6                           9 
    30 complet[2,5]                5                           9 
    31 complet[2,6]                4                           9 
    32 complet[2,7]                3                           9 
    33 complet[2,8]                2                           9 
    34 complet[2,9]                1                           9 
    35 complet[2,10]
                                   0                           9 
    36 complet[2,11]
                                   9                           9 
    37 complet[2,12]
                                   0                           9 
    38 complet[2,13]
                                   0                           9 
    39 complet[2,14]
                                   0                           9 
    40 complet[2,15]
                                   0                           9 
    41 complet[2,16]
                                   0                           9 
    42 complet[2,17]
                                   0                           9 
    43 complet[2,18]
                                   0                           9 
    44 complet[2,19]
                                   0                           9 
    45 complet[2,20]
                                   0                           9 
    46 complet[3,1]                1                           1 
    47 complet[3,2]                0                           1 
    48 complet[3,3]                0                           1 
    49 complet[3,4]                0                           1 
    50 complet[3,5]                0                           1 
    51 complet[3,6]                0                           1 
    52 complet[3,7]                0                           1 
    53 complet[3,8]                0                           1 
    54 complet[3,9]                0                           1 
    55 complet[3,10]
                                   0                           1 
    56 complet[3,11]
                                   0                           1 
    57 complet[3,12]
                                   0                           1 
    58 complet[3,13]
                                   0                           1 
    59 complet[3,14]
                                   0                           1 
    60 complet[3,15]
                                   0                           1 
    61 complet[3,16]
                                   0                           1 
    62 complet[3,17]
                                   0                           1 
    63 complet[3,18]
                                   0                           1 
    64 complet[3,19]
                                   0                           1 
    65 complet[3,20]
                                   0                           1 
    66 complet[4,1]                2                           4 
    67 complet[4,2]                1                           4 
    68 complet[4,3]                0                           4 
    69 complet[4,4]                4                           4 
    70 complet[4,5]                0                           4 
    71 complet[4,6]                0                           4 
    72 complet[4,7]                0                           4 
    73 complet[4,8]                0                           4 
    74 complet[4,9]                0                           4 
    75 complet[4,10]
                                   0                           4 
    76 complet[4,11]
                                   0                           4 
    77 complet[4,12]
                                   0                           4 
    78 complet[4,13]
                                   0                           4 
    79 complet[4,14]
                                   0                           4 
    80 complet[4,15]
                                   0                           4 
    81 complet[4,16]
                                   0                           4 
    82 complet[4,17]
                                   0                           4 
    83 complet[4,18]
                                   0                           4 
    84 complet[4,19]
                                   0                           4 
    85 complet[4,20]
                                   0                           4 
    86 complet[5,1]                7                           7 
    87 complet[5,2]                7                           7 
    88 complet[5,3]                7                           7 
    89 complet[5,4]               -1                           7 
    90 complet[5,5]                5                           7 
    91 complet[5,6]                4                           7 
    92 complet[5,7]                3                           7 
    93 complet[5,8]                2                           7 
    94 complet[5,9]                1                           7 
    95 complet[5,10]
                                   0                           7 
    96 complet[5,11]
                                   7                           7 
    97 complet[5,12]
                                   0                           7 
    98 complet[5,13]
                                   0                           7 
    99 complet[5,14]
                                   0                           7 
   100 complet[5,15]
                                   0                           7 
   101 complet[5,16]
                                   0                           7 
   102 complet[5,17]
                                   0                           7 
   103 complet[5,18]
                                   0                           7 
   104 complet[5,19]
                                   0                           7 
   105 complet[5,20]
                                   0                           7 
   106 cmax[1,1]                  12            -0               
   107 cmax[1,2]                  12            -0               
   108 cmax[1,3]                  12            -0               
   109 cmax[1,4]                  12            -0               
   110 cmax[1,5]                  12            -0               
   111 cmax[1,6]                  12            -0               
   112 cmax[1,7]                  12            -0               
   113 cmax[1,8]                  12            -0               
   114 cmax[1,9]                  12            -0               
   115 cmax[1,10]                 12            -0               
   116 cmax[1,11]                 12            -0               
   117 cmax[1,12]                  0            -0               
   118 cmax[1,13]                 12            -0               
   119 cmax[1,14]                 12            -0               
   120 cmax[1,15]                 12            -0               
   121 cmax[1,16]                 12            -0               
   122 cmax[1,17]                 12            -0               
   123 cmax[1,18]                 12            -0               
   124 cmax[1,19]                 12            -0               
   125 cmax[1,20]                 12            -0               
   126 cmax[1,21]                 12            -0               
   127 cmax[1,22]                 12            -0               
   128 cmax[2,1]                  12            -0               
   129 cmax[2,2]                  12            -0               
   130 cmax[2,3]                   9            -0               
   131 cmax[2,4]                   8            -0               
   132 cmax[2,5]                   7            -0               
   133 cmax[2,6]                   6            -0               
   134 cmax[2,7]                   5            -0               
   135 cmax[2,8]                   4            -0               
   136 cmax[2,9]                   3            -0               
   137 cmax[2,10]                  2            -0               
   138 cmax[2,11]                  1            -0               
   139 cmax[2,12]                 12            -0               
   140 cmax[2,13]                 12            -0               
   141 cmax[2,14]                 12            -0               
   142 cmax[2,15]                 12            -0               
   143 cmax[2,16]                 12            -0               
   144 cmax[2,17]                 12            -0               
   145 cmax[2,18]                 12            -0               
   146 cmax[2,19]                 12            -0               
   147 cmax[2,20]                 12            -0               
   148 cmax[2,21]                 12            -0               
   149 cmax[2,22]                 12            -0               
   150 cmax[3,1]                  11            -0               
   151 cmax[3,2]                  12            -0               
   152 cmax[3,3]                  12            -0               
   153 cmax[3,4]                  12            -0               
   154 cmax[3,5]                  12            -0               
   155 cmax[3,6]                  12            -0               
   156 cmax[3,7]                  12            -0               
   157 cmax[3,8]                  12            -0               
   158 cmax[3,9]                  12            -0               
   159 cmax[3,10]                 12            -0               
   160 cmax[3,11]                 12            -0               
   161 cmax[3,12]                 12            -0               
   162 cmax[3,13]                 12            -0               
   163 cmax[3,14]                 12            -0               
   164 cmax[3,15]                 12            -0               
   165 cmax[3,16]                 12            -0               
   166 cmax[3,17]                 12            -0               
   167 cmax[3,18]                 12            -0               
   168 cmax[3,19]                 12            -0               
   169 cmax[3,20]                 12            -0               
   170 cmax[3,21]                 12            -0               
   171 cmax[3,22]                 12            -0               
   172 cmax[4,1]                  11            -0               
   173 cmax[4,2]                  10            -0               
   174 cmax[4,3]                   9            -0               
   175 cmax[4,4]                   8            -0               
   176 cmax[4,5]                  12            -0               
   177 cmax[4,6]                  12            -0               
   178 cmax[4,7]                  12            -0               
   179 cmax[4,8]                  12            -0               
   180 cmax[4,9]                  12            -0               
   181 cmax[4,10]                 12            -0               
   182 cmax[4,11]                 12            -0               
   183 cmax[4,12]                 12            -0               
   184 cmax[4,13]                 12            -0               
   185 cmax[4,14]                 12            -0               
   186 cmax[4,15]                 12            -0               
   187 cmax[4,16]                 12            -0               
   188 cmax[4,17]                 12            -0               
   189 cmax[4,18]                 12            -0               
   190 cmax[4,19]                 12            -0               
   191 cmax[4,20]                 12            -0               
   192 cmax[4,21]                 12            -0               
   193 cmax[4,22]                 12            -0               
   194 cmax[5,1]                  12            -0               
   195 cmax[5,2]                  12            -0               
   196 cmax[5,3]                  12            -0               
   197 cmax[5,4]                  12            -0               
   198 cmax[5,5]                   7            -0               
   199 cmax[5,6]                   6            -0               
   200 cmax[5,7]                   5            -0               
   201 cmax[5,8]                   4            -0               
   202 cmax[5,9]                   3            -0               
   203 cmax[5,10]                  2            -0               
   204 cmax[5,11]                  1            -0               
   205 cmax[5,12]                 12            -0               
   206 cmax[5,13]                 12            -0               
   207 cmax[5,14]                 12            -0               
   208 cmax[5,15]                 12            -0               
   209 cmax[5,16]                 12            -0               
   210 cmax[5,17]                 12            -0               
   211 cmax[5,18]                 12            -0               
   212 cmax[5,19]                 12            -0               
   213 cmax[5,20]                 12            -0               
   214 cmax[5,21]                 12            -0               
   215 cmax[5,22]                 12            -0               
   216 ressource[1,1]
                                   4                           6 
   217 ressource[1,2]
                                   3                           6 
   218 ressource[1,3]
                                   5                           6 
   219 ressource[1,4]
                                   5                           6 
   220 ressource[1,5]
                                   6                           6 
   221 ressource[1,6]
                                   6                           6 
   222 ressource[1,7]
                                   6                           6 
   223 ressource[1,8]
                                   6                           6 
   224 ressource[1,9]
                                   6                           6 
   225 ressource[1,10]
                                   6                           6 
   226 ressource[1,11]
                                   6                           6 
   227 ressource[1,12]
                                   4                           6 
   228 ressource[1,13]
                                   0                           6 
   229 ressource[1,14]
                                   0                           6 
   230 ressource[1,15]
                                   0                           6 
   231 ressource[1,16]
                                   0                           6 
   232 ressource[1,17]
                                   0                           6 
   233 ressource[1,18]
                                   0                           6 
   234 ressource[1,19]
                                   0                           6 
   235 ressource[1,20]
                                   0                           6 
   236 ressource[1,21]
                                   0                           6 
   237 ressource[1,22]
                                   0                           6 
   238 ressource[2,1]
                                   9                          16 
   239 ressource[2,2]
                                   7                          16 
   240 ressource[2,3]
                                  15                          16 
   241 ressource[2,4]
                                  15                          16 
   242 ressource[2,5]
                                  13                          16 
   243 ressource[2,6]
                                  13                          16 
   244 ressource[2,7]
                                  13                          16 
   245 ressource[2,8]
                                  13                          16 
   246 ressource[2,9]
                                  13                          16 
   247 ressource[2,10]
                                  13                          16 
   248 ressource[2,11]
                                  13                          16 
   249 ressource[2,12]
                                   8                          16 
   250 ressource[2,13]
                                   0                          16 
   251 ressource[2,14]
                                   0                          16 
   252 ressource[2,15]
                                   0                          16 
   253 ressource[2,16]
                                   0                          16 
   254 ressource[2,17]
                                   0                          16 
   255 ressource[2,18]
                                   0                          16 
   256 ressource[2,19]
                                   0                          16 
   257 ressource[2,20]
                                   0                          16 
   258 ressource[2,21]
                                   0                          16 
   259 ressource[2,22]
                                   0                          16 
   260 ressource[3,1]
                                   7                          18 
   261 ressource[3,2]
                                   2                          18 
   262 ressource[3,3]
                                  12                          18 
   263 ressource[3,4]
                                  12                          18 
   264 ressource[3,5]
                                  17                          18 
   265 ressource[3,6]
                                  17                          18 
   266 ressource[3,7]
                                  17                          18 
   267 ressource[3,8]
                                  17                          18 
   268 ressource[3,9]
                                  17                          18 
   269 ressource[3,10]
                                  17                          18 
   270 ressource[3,11]
                                  17                          18 
   271 ressource[3,12]
                                   7                          18 
   272 ressource[3,13]
                                   0                          18 
   273 ressource[3,14]
                                   0                          18 
   274 ressource[3,15]
                                   0                          18 
   275 ressource[3,16]
                                   0                          18 
   276 ressource[3,17]
                                   0                          18 
   277 ressource[3,18]
                                   0                          18 
   278 ressource[3,19]
                                   0                          18 
   279 ressource[3,20]
                                   0                          18 
   280 ressource[3,21]
                                   0                          18 
   281 ressource[3,22]
                                   0                          18 
   282 obj                        12                             

   No. Column name       Activity     Lower bound   Upper bound
------ ------------    ------------- ------------- -------------
     1 x[1,1]       *              0             0             1 
     2 x[1,2]       *              0             0             1 
     3 x[1,3]       *              0             0             1 
     4 x[1,4]       *              0             0             1 
     5 x[1,5]       *              0             0             1 
     6 x[1,6]       *              0             0             1 
     7 x[1,7]       *              0             0             1 
     8 x[1,8]       *              0             0             1 
     9 x[1,9]       *              0             0             1 
    10 x[1,10]      *              0             0             1 
    11 x[1,11]      *              0             0             1 
    12 x[1,12]      *              1             0             1 
    13 x[1,13]      *              0             0             1 
    14 x[1,14]      *              0             0             1 
    15 x[1,15]      *              0             0             1 
    16 x[1,16]      *              0             0             1 
    17 x[1,17]      *              0             0             1 
    18 x[1,18]      *              0             0             1 
    19 x[1,19]      *              0             0             1 
    20 x[1,20]      *              0             0             1 
    21 x[1,21]      *              0             0             1 
    22 x[1,22]      *              0             0             1 
    23 x[2,1]       *              0             0             1 
    24 x[2,2]       *              0             0             1 
    25 x[2,3]       *              1             0             1 
    26 x[2,4]       *              1             0             1 
    27 x[2,5]       *              1             0             1 
    28 x[2,6]       *              1             0             1 
    29 x[2,7]       *              1             0             1 
    30 x[2,8]       *              1             0             1 
    31 x[2,9]       *              1             0             1 
    32 x[2,10]      *              1             0             1 
    33 x[2,11]      *              1             0             1 
    34 x[2,12]      *              0             0             1 
    35 x[2,13]      *              0             0             1 
    36 x[2,14]      *              0             0             1 
    37 x[2,15]      *              0             0             1 
    38 x[2,16]      *              0             0             1 
    39 x[2,17]      *              0             0             1 
    40 x[2,18]      *              0             0             1 
    41 x[2,19]      *              0             0             1 
    42 x[2,20]      *              0             0             1 
    43 x[2,21]      *              0             0             1 
    44 x[2,22]      *              0             0             1 
    45 x[3,1]       *              1             0             1 
    46 x[3,2]       *              0             0             1 
    47 x[3,3]       *              0             0             1 
    48 x[3,4]       *              0             0             1 
    49 x[3,5]       *              0             0             1 
    50 x[3,6]       *              0             0             1 
    51 x[3,7]       *              0             0             1 
    52 x[3,8]       *              0             0             1 
    53 x[3,9]       *              0             0             1 
    54 x[3,10]      *              0             0             1 
    55 x[3,11]      *              0             0             1 
    56 x[3,12]      *              0             0             1 
    57 x[3,13]      *              0             0             1 
    58 x[3,14]      *              0             0             1 
    59 x[3,15]      *              0             0             1 
    60 x[3,16]      *              0             0             1 
    61 x[3,17]      *              0             0             1 
    62 x[3,18]      *              0             0             1 
    63 x[3,19]      *              0             0             1 
    64 x[3,20]      *              0             0             1 
    65 x[3,21]      *              0             0             1 
    66 x[3,22]      *              0             0             1 
    67 x[4,1]       *              1             0             1 
    68 x[4,2]       *              1             0             1 
    69 x[4,3]       *              1             0             1 
    70 x[4,4]       *              1             0             1 
    71 x[4,5]       *              0             0             1 
    72 x[4,6]       *              0             0             1 
    73 x[4,7]       *              0             0             1 
    74 x[4,8]       *              0             0             1 
    75 x[4,9]       *              0             0             1 
    76 x[4,10]      *              0             0             1 
    77 x[4,11]      *              0             0             1 
    78 x[4,12]      *              0             0             1 
    79 x[4,13]      *              0             0             1 
    80 x[4,14]      *              0             0             1 
    81 x[4,15]      *              0             0             1 
    82 x[4,16]      *              0             0             1 
    83 x[4,17]      *              0             0             1 
    84 x[4,18]      *              0             0             1 
    85 x[4,19]      *              0             0             1 
    86 x[4,20]      *              0             0             1 
    87 x[4,21]      *              0             0             1 
    88 x[4,22]      *              0             0             1 
    89 x[5,1]       *              0             0             1 
    90 x[5,2]       *              0             0             1 
    91 x[5,3]       *              0             0             1 
    92 x[5,4]       *              0             0             1 
    93 x[5,5]       *              1             0             1 
    94 x[5,6]       *              1             0             1 
    95 x[5,7]       *              1             0             1 
    96 x[5,8]       *              1             0             1 
    97 x[5,9]       *              1             0             1 
    98 x[5,10]      *              1             0             1 
    99 x[5,11]      *              1             0             1 
   100 x[5,12]      *              0             0             1 
   101 x[5,13]      *              0             0             1 
   102 x[5,14]      *              0             0             1 
   103 x[5,15]      *              0             0             1 
   104 x[5,16]      *              0             0             1 
   105 x[5,17]      *              0             0             1 
   106 x[5,18]      *              0             0             1 
   107 x[5,19]      *              0             0             1 
   108 x[5,20]      *              0             0             1 
   109 x[5,21]      *              0             0             1 
   110 x[5,22]      *              0             0             1 
   111 z                          12                             

Integer feasibility conditions:

KKT.PE: max.abs.err = 0.00e+00 on row 0
        max.rel.err = 0.00e+00 on row 0
        High quality

KKT.PB: max.abs.err = 0.00e+00 on row 0
        max.rel.err = 0.00e+00 on row 0
        High quality

End of output
